; PUSH 0x01 ISZERO => PUSH 0x00
(set-option :produce-proofs true)
; 
(set-info :status unknown)
(declare-fun storage_t (Int (_ BitVec 256)) (_ BitVec 256))
(declare-fun storage_s (Int (_ BitVec 256)) (_ BitVec 256))
(declare-fun exc_halt_t (Int) Bool)
(declare-fun exc_halt_s (Int) Bool)
(declare-fun stack_t (Int (_ BitVec 6)) (_ BitVec 256))
(declare-fun stack_s (Int (_ BitVec 6)) (_ BitVec 256))
(declare-fun sc_t (Int) (_ BitVec 6))
(declare-fun sc_s (Int) (_ BitVec 6))
(declare-fun used_gas_t (Int) Int)
(declare-fun used_gas_s (Int) Int)
(assert
 (let (($x9450 (forall ((w (_ BitVec 256)) )(let ((?x521 (storage_t 1 w)))
 (let ((?x5818 (storage_s 2 w)))
 (= ?x5818 ?x521))))
 ))
 (let (($x1920 (exc_halt_t 1)))
 (let (($x247 (exc_halt_s 2)))
 (let (($x3117 (= $x247 $x1920)))
 (let (($x460 (forall ((n (_ BitVec 6)) )(let ((?x5240 (stack_t 1 n)))
 (let ((?x4991 (stack_s 2 n)))
 (let (($x4819 (= ?x4991 ?x5240)))
 (or (bvsle (sc_t 1) n) $x4819)))))
 ))
 (let ((?x4023 (sc_t 1)))
 (let ((?x218 (sc_s 2)))
 (let (($x5634 (= ?x218 ?x4023)))
 (let ((?x3200 (used_gas_t 0)))
 (let ((?x5087 (used_gas_s 0)))
 (let (($x847 (= ?x5087 ?x3200)))
 (let (($x4775 (forall ((w (_ BitVec 256)) )(let ((?x332 (storage_t 0 w)))
 (let ((?x1505 (storage_s 0 w)))
 (= ?x1505 ?x332))))
 ))
 (let (($x56 (exc_halt_t 0)))
 (let (($x57 (exc_halt_s 0)))
 (let (($x58 (= $x57 $x56)))
 (let (($x193 (forall ((n (_ BitVec 6)) )(let ((?x5099 (stack_t 0 n)))
 (let ((?x9275 (stack_s 0 n)))
 (let (($x6936 (= ?x9275 ?x5099)))
 (let ((?x63 (sc_t 0)))
 (let (($x4379 (bvsle ?x63 n)))
 (or $x4379 $x6936)))))))
 ))
 (let ((?x63 (sc_t 0)))
 (let ((?x72 (sc_s 0)))
 (let (($x73 (= ?x72 ?x63)))
 (let (($x4795 (= $x1920 (or $x56 (not (= ((_ extract 6 6) (bvadd (_ bv1 7) (concat (_ bv0 1) ?x63))) (_ bv0 1)))))))
 (let (($x3673 (forall ((w (_ BitVec 256)) )(let ((?x332 (storage_t 0 w)))
 (let ((?x521 (storage_t 1 w)))
 (= ?x521 ?x332))))
 ))
 (let (($x6814 (forall ((n (_ BitVec 6)) )(let ((?x63 (sc_t 0)))
 (let (($x4379 (bvsle ?x63 n)))
 (or $x4379 (= (stack_t 1 n) (stack_t 0 n))))))
 ))
 (let (($x4877 (= $x247 (or (exc_halt_s 1) (not (bvsle (_ bv0 6) (bvadd (_ bv63 6) (sc_s 1))))))))
 (let (($x545 (forall ((w (_ BitVec 256)) )(let ((?x4817 (storage_s 1 w)))
 (let ((?x5818 (storage_s 2 w)))
 (= ?x5818 ?x4817))))
 ))
 (let (($x1938 (forall ((n (_ BitVec 6)) )(or (= (stack_s 2 n) (stack_s 1 n)) (bvsle (bvadd (_ bv63 6) (sc_s 1)) n)))
 ))
 (let (($x8879 (= (stack_s 2 (bvadd (_ bv63 6) ?x218)) (ite (= (stack_s 1 (bvadd (_ bv63 6) (sc_s 1))) (_ bv0 256)) (_ bv1 256) (_ bv0 256)))))
 (let (($x189 (exc_halt_s 1)))
 (let (($x9367 (= $x189 (or $x57 (not (= ((_ extract 6 6) (bvadd (_ bv1 7) (concat (_ bv0 1) ?x72))) (_ bv0 1)))))))
 (let (($x10883 (forall ((w (_ BitVec 256)) )(let ((?x1505 (storage_s 0 w)))
 (let ((?x4817 (storage_s 1 w)))
 (= ?x4817 ?x1505))))
 ))
 (let (($x5815 (forall ((n (_ BitVec 6)) )(or (= (stack_s 1 n) (stack_s 0 n)) (bvsle (sc_s 0) n)))
 ))
 (let (($x10916 (forall ((w (_ BitVec 256)) )(let ((?x1505 (storage_s 0 w)))
 (= ?x1505 (_ bv0 256))))
 ))
 (let (($x4606 (= ?x5087 0)))
 (let (($x136 (= ?x72 (_ bv0 6))))
 (and $x136 (not $x57) $x4606 $x10916 (= (stack_s 1 ?x72) (_ bv1 256)) (= (used_gas_s 1) (+ 3 ?x5087)) (= (sc_s 1) (bvadd (_ bv1 6) ?x72)) $x5815 $x10883 $x9367 $x8879 (= (used_gas_s 2) (+ 3 (used_gas_s 1))) (= ?x218 (sc_s 1)) $x1938 $x545 $x4877 (= (stack_t 1 ?x63) (_ bv0 256)) (= (used_gas_t 1) (+ 3 ?x3200)) (= ?x4023 (bvadd (_ bv1 6) ?x63)) $x6814 $x3673 $x4795 $x73 $x193 $x58 $x4775 $x847 (not (and $x5634 $x460 $x3117 $x9450)))))))))))))))))))))))))))))))))))))
(check-sat)
(get-proof)
